(set-info :smt-lib-version 2.6)
(set-logic QF_UFNIA)
(set-info :source |
Generated by: David Deharbe, CLEARSY
Generated on: 2019-09-06
Generator: bxml;pog;pog2smt (Atelier B)
Application: B-method
Target solver: CVC4, Z3
|)
(set-info :license "https://creativecommons.org/licenses/by-nc/4.0/")
(set-info :category "industrial")
(set-info :status unsat)
; Prelude
(declare-fun |*r| (Int Int) Int)
(declare-fun |+r| (Int Int) Int)
(declare-fun |-r| (Int Int) Int)
(declare-fun rdiv (Int Int) Int)
(declare-fun |<r| (Int Int) Bool)
(declare-fun |<=r| (Int Int) Bool)
(declare-fun |>r| (Int Int) Bool)
(declare-fun |>=r| (Int Int) Bool)
(declare-fun ruminus (Int) Int)
(declare-fun TRUE () Int)
(declare-fun FALSE () Int)
(assert (not (= TRUE FALSE)))
(declare-fun empty () Int)
(declare-fun bool (Bool) Int)
(declare-fun BOOL () Int)
(declare-fun INT () Int)
(declare-fun INTEGER () Int)
(declare-fun NAT () Int)
(declare-fun NAT1 () Int)
(declare-fun NATURAL () Int)
(declare-fun NATURAL1 () Int)
(declare-fun FLOAT () Int)
(declare-fun MaxInt () Int)
(declare-fun MinInt () Int)
(declare-fun |STRING| () Int)
(declare-fun REAL () Int)
(declare-fun set_prod (Int Int) Int)
(declare-fun set_diff (Int Int) Int)
(declare-fun mapplet (Int Int) Int)
(declare-fun |**i| (Int Int) Int)
(declare-fun |**r| (Int Int) Int)
(declare-fun |+->| (Int Int) Int)
(declare-fun |+->>| (Int Int) Int)
(declare-fun |-->| (Int Int) Int)
(declare-fun |-->>| (Int Int) Int)
(declare-fun |<->| (Int Int) Int)
(declare-fun |>+>| (Int Int) Int)
(declare-fun |>->| (Int Int) Int)
(declare-fun |>+>>| (Int Int) Int)
(declare-fun |>->>| (Int Int) Int)
(declare-fun |->| (Int Int) Int)
(declare-fun interval (Int Int) Int)
(declare-fun composition (Int Int) Int)
(declare-fun binary_inter (Int Int) Int)
(declare-fun restriction_head (Int Int) Int)
(declare-fun semicolon (Int Int) Int)
(declare-fun |<+| (Int Int) Int)
(declare-fun |<-| (Int Int) Int)
(declare-fun domain_subtraction (Int Int) Int)
(declare-fun domain_restriction (Int Int) Int)
(declare-fun |><| (Int Int) Int)
(declare-fun parallel_product (Int Int) Int)
(declare-fun binary_union (Int Int) Int)
(declare-fun restriction_tail (Int Int) Int)
(declare-fun concatenate (Int Int) Int)
(declare-fun range_restriction (Int Int) Int)
(declare-fun range_subtraction (Int Int) Int)
(declare-fun image (Int Int) Int)
(declare-fun apply (Int Int) Int)
(declare-fun prj1 (Int Int) Int)
(declare-fun prj2 (Int Int) Int)
(declare-fun iterate (Int Int) Int)
(declare-fun |const| (Int Int) Int)
(declare-fun rank (Int Int) Int)
(declare-fun father (Int Int) Int)
(declare-fun subtree (Int Int) Int)
(declare-fun arity (Int Int) Int)
(declare-fun |+f| (Int Int) Int)
(declare-fun |-f| (Int Int) Int)
(declare-fun |*f| (Int Int) Int)
(declare-fun |fdiv| (Int Int) Int)
(declare-fun tbin (Int Int Int) Int)
(declare-fun son (Int Int Int) Int)
(declare-fun mem (Int Int) Bool)
(declare-fun subset (Int Int) Bool)
(declare-fun strict_subset (Int Int) Bool)
(declare-fun |<=f| (Int Int) Bool)
(declare-fun |<f| (Int Int) Bool)
(declare-fun |>=f| (Int Int) Bool)
(declare-fun |>f| (Int Int) Bool)
(declare-fun imax (Int) Int)
(declare-fun imin (Int) Int)
(declare-fun rmax (Int) Int)
(declare-fun rmin (Int) Int)
(declare-fun card (Int) Int)
(declare-fun dom (Int) Int)
(declare-fun ran (Int) Int)
(declare-fun POW (Int) Int)
(declare-fun POW1 (Int) Int)
(declare-fun FIN (Int) Int)
(declare-fun FIN1 (Int) Int)
(declare-fun union (Int) Int)
(declare-fun inter (Int) Int)
(declare-fun seq (Int) Int)
(declare-fun seq1 (Int) Int)
(declare-fun iseq (Int) Int)
(declare-fun iseq1 (Int) Int)
(declare-fun inverse (Int) Int)
(declare-fun size (Int) Int)
(declare-fun perm (Int) Int)
(declare-fun first (Int) Int)
(declare-fun last (Int) Int)
(declare-fun id (Int) Int)
(declare-fun closure (Int) Int)
(declare-fun closure1 (Int) Int)
(declare-fun tail (Int) Int)
(declare-fun front (Int) Int)
(declare-fun reverse (Int) Int)
(declare-fun rev (Int) Int)
(declare-fun conc (Int) Int)
(declare-fun succ (Int) Int)
(declare-fun pred (Int) Int)
(declare-fun rel (Int) Int)
(declare-fun fnc (Int) Int)
(declare-fun real (Int) Int)
(declare-fun floor (Int) Int)
(declare-fun ceiling (Int) Int)
(declare-fun tree (Int) Int)
(declare-fun btree (Int) Int)
(declare-fun top (Int) Int)
(declare-fun sons (Int) Int)
(declare-fun prefix (Int) Int)
(declare-fun postfix (Int) Int)
(declare-fun sizet (Int) Int)
(declare-fun mirror (Int) Int)
(declare-fun left (Int) Int)
(declare-fun right (Int) Int)
(declare-fun infix (Int) Int)
(declare-fun ubin (Int) Int)
(declare-fun SEQ (Int) Int)
(declare-fun SET (Int) Int)
; Opaque formulas
(declare-fun g_s0_0 () Int)
(declare-fun g_s1_1 () Int)
(declare-fun g_s10_10 () Int)
(declare-fun g_s100_100 () Int)
(declare-fun g_s101_101 () Int)
(declare-fun g_s102_102 () Int)
(declare-fun g_s103_103 () Int)
(declare-fun g_s104_104 () Int)
(declare-fun g_s105_105 () Int)
(declare-fun g_s106_106 () Int)
(declare-fun g_s107_107 () Int)
(declare-fun g_s108_108 () Int)
(declare-fun g_s109_109 () Int)
(declare-fun g_s11_11 () Int)
(declare-fun g_s110_110 () Int)
(declare-fun g_s111_111 () Int)
(declare-fun g_s112_112 () Int)
(declare-fun g_s113_113 () Int)
(declare-fun g_s114_114 () Int)
(declare-fun g_s115_115 () Int)
(declare-fun g_s116_116 () Int)
(declare-fun g_s117_117 () Int)
(declare-fun g_s118_118 () Int)
(declare-fun g_s119_119 () Int)
(declare-fun g_s12_12 () Int)
(declare-fun g_s120_120 () Int)
(declare-fun g_s121_121 () Int)
(declare-fun g_s122_122 () Int)
(declare-fun g_s123_123 () Int)
(declare-fun g_s124_124 () Int)
(declare-fun g_s125_125 () Int)
(declare-fun g_s126_126 () Int)
(declare-fun g_s127_127 () Int)
(declare-fun g_s128_128 () Int)
(declare-fun g_s129_129 () Int)
(declare-fun g_s13_13 () Int)
(declare-fun g_s130_130 () Int)
(declare-fun g_s131_131 () Int)
(declare-fun g_s132_132 () Int)
(declare-fun g_s133_133 () Int)
(declare-fun g_s134_134 () Int)
(declare-fun g_s135_135 () Int)
(declare-fun g_s136_136 () Int)
(declare-fun g_s137_137 () Int)
(declare-fun g_s138_138 () Int)
(declare-fun g_s139_139 () Int)
(declare-fun g_s14_14 () Int)
(declare-fun g_s140_140 () Int)
(declare-fun g_s141_141 () Int)
(declare-fun g_s142_142 () Int)
(declare-fun g_s143_143 () Int)
(declare-fun g_s144_144 () Int)
(declare-fun g_s145_145 () Int)
(declare-fun g_s146_146 () Int)
(declare-fun g_s147_147 () Int)
(declare-fun g_s148_148 () Int)
(declare-fun g_s149_149 () Int)
(declare-fun g_s15_15 () Int)
(declare-fun g_s150_150 () Int)
(declare-fun g_s151_151 () Int)
(declare-fun g_s152_152 () Int)
(declare-fun g_s153_153 () Int)
(declare-fun g_s154_154 () Int)
(declare-fun g_s155_155 () Int)
(declare-fun g_s156_156 () Int)
(declare-fun g_s157_157 () Int)
(declare-fun g_s158_158 () Int)
(declare-fun g_s159_159 () Int)
(declare-fun g_s16_16 () Int)
(declare-fun g_s160_160 () Int)
(declare-fun g_s161_161 () Int)
(declare-fun g_s162_162 () Int)
(declare-fun g_s163_163 () Int)
(declare-fun g_s164_164 () Int)
(declare-fun g_s165_165 () Int)
(declare-fun g_s166_166 () Int)
(declare-fun g_s167_167 () Int)
(declare-fun g_s168_168 () Int)
(declare-fun g_s169_169 () Int)
(declare-fun g_s17_17 () Int)
(declare-fun g_s170_170 () Int)
(declare-fun g_s171_171 () Int)
(declare-fun g_s172_173 () Int)
(declare-fun g_s173_172 () Int)
(declare-fun g_s174_174 () Int)
(declare-fun g_s175_175 () Int)
(declare-fun g_s176_176 () Int)
(declare-fun g_s177_177 () Int)
(declare-fun g_s178_178 () Int)
(declare-fun g_s179_179 () Int)
(declare-fun g_s18_18 () Int)
(declare-fun g_s180_180 () Int)
(declare-fun g_s181_181 () Int)
(declare-fun g_s182_182 () Int)
(declare-fun g_s183_183 () Int)
(declare-fun g_s184_184 () Int)
(declare-fun g_s185_185 () Int)
(declare-fun g_s186_186 () Int)
(declare-fun g_s187_187 () Int)
(declare-fun g_s188_188 () Int)
(declare-fun g_s189_189 () Int)
(declare-fun g_s19_19 () Int)
(declare-fun g_s190_190 () Int)
(declare-fun g_s191_191 () Int)
(declare-fun g_s192_192 () Int)
(declare-fun g_s193_193 () Int)
(declare-fun g_s194_194 () Int)
(declare-fun g_s195_195 () Int)
(declare-fun g_s196_196 () Int)
(declare-fun g_s197_197 () Int)
(declare-fun g_s198_198 () Int)
(declare-fun g_s199_199 () Int)
(declare-fun g_s2_2 () Int)
(declare-fun g_s20_20 () Int)
(declare-fun g_s200_200 () Int)
(declare-fun g_s201_201 () Int)
(declare-fun g_s202_202 () Int)
(declare-fun g_s203_203 () Int)
(declare-fun g_s204_204 () Int)
(declare-fun g_s205_205 () Int)
(declare-fun g_s206_206 () Int)
(declare-fun g_s207_207 () Int)
(declare-fun g_s208_208 () Int)
(declare-fun g_s209_209 () Int)
(declare-fun g_s21_21 () Int)
(declare-fun g_s210_210 () Int)
(declare-fun g_s211_211 () Int)
(declare-fun g_s212_212 () Int)
(declare-fun g_s213_213 () Int)
(declare-fun g_s214_214 () Int)
(declare-fun g_s215_215 () Int)
(declare-fun g_s216_216 () Int)
(declare-fun g_s217_217 () Int)
(declare-fun g_s218_218 () Int)
(declare-fun g_s219_219 () Int)
(declare-fun g_s22_22 () Int)
(declare-fun g_s220_220 () Int)
(declare-fun g_s221_221 () Int)
(declare-fun g_s222_222 () Int)
(declare-fun g_s223_223 () Int)
(declare-fun g_s224_224 () Int)
(declare-fun g_s225_225 () Int)
(declare-fun g_s226_226 () Int)
(declare-fun g_s227_227 () Int)
(declare-fun g_s228_228 () Int)
(declare-fun g_s229_229 () Int)
(declare-fun g_s23_23 () Int)
(declare-fun g_s230_230 () Int)
(declare-fun g_s231_231 () Int)
(declare-fun g_s232_232 () Int)
(declare-fun g_s233_233 () Int)
(declare-fun g_s234_234 () Int)
(declare-fun g_s235_235 () Int)
(declare-fun g_s236_236 () Int)
(declare-fun g_s237_237 () Int)
(declare-fun g_s238_238 () Int)
(declare-fun g_s239_239 () Int)
(declare-fun g_s24_24 () Int)
(declare-fun g_s240_240 () Int)
(declare-fun g_s241_241 () Int)
(declare-fun g_s242_242 () Int)
(declare-fun g_s243_243 () Int)
(declare-fun g_s244_244 () Int)
(declare-fun g_s245_245 () Int)
(declare-fun g_s246_246 () Int)
(declare-fun g_s247_247 () Int)
(declare-fun g_s248_248 () Int)
(declare-fun g_s249_249 () Int)
(declare-fun g_s25_25 () Int)
(declare-fun g_s250_250 () Int)
(declare-fun g_s251_251 () Int)
(declare-fun g_s252_252 () Int)
(declare-fun g_s253_253 () Int)
(declare-fun g_s254_254 () Int)
(declare-fun g_s255_255 () Int)
(declare-fun g_s256_256 () Int)
(declare-fun g_s257_257 () Int)
(declare-fun g_s258_258 () Int)
(declare-fun g_s259_259 () Int)
(declare-fun g_s26_26 () Int)
(declare-fun g_s260_260 () Int)
(declare-fun g_s261_261 () Int)
(declare-fun g_s262_262 () Int)
(declare-fun g_s263_263 () Int)
(declare-fun g_s264_264 () Int)
(declare-fun g_s265_265 () Int)
(declare-fun g_s266_266 () Int)
(declare-fun g_s267_267 () Int)
(declare-fun g_s268_268 () Int)
(declare-fun g_s269_269 () Int)
(declare-fun g_s27_27 () Int)
(declare-fun g_s270_270 () Int)
(declare-fun g_s271_271 () Int)
(declare-fun g_s272_272 () Int)
(declare-fun g_s273_273 () Int)
(declare-fun g_s274_274 () Int)
(declare-fun g_s275_275 () Int)
(declare-fun g_s276_276 () Int)
(declare-fun g_s277_277 () Int)
(declare-fun g_s278_278 () Int)
(declare-fun g_s279_279 () Int)
(declare-fun g_s28_28 () Int)
(declare-fun g_s280_280 () Int)
(declare-fun g_s281_281 () Int)
(declare-fun g_s282_282 () Int)
(declare-fun g_s283_283 () Int)
(declare-fun g_s284_284 () Int)
(declare-fun g_s285_285 () Int)
(declare-fun g_s286_286 () Int)
(declare-fun g_s287_287 () Int)
(declare-fun g_s288_288 () Int)
(declare-fun g_s289_289 () Int)
(declare-fun g_s29_29 () Int)
(declare-fun g_s290_290 () Int)
(declare-fun g_s291_291 () Int)
(declare-fun g_s292_292 () Int)
(declare-fun g_s293_293 () Int)
(declare-fun g_s294_294 () Int)
(declare-fun g_s295_295 () Int)
(declare-fun g_s296_296 () Int)
(declare-fun g_s297_297 () Int)
(declare-fun g_s298_298 () Int)
(declare-fun g_s299_299 () Int)
(declare-fun g_s3_3 () Int)
(declare-fun g_s30_30 () Int)
(declare-fun g_s300_300 () Int)
(declare-fun g_s301_301 () Int)
(declare-fun g_s302_302 () Int)
(declare-fun g_s303_303 () Int)
(declare-fun g_s304_304 () Int)
(declare-fun g_s305_305 () Int)
(declare-fun g_s306_306 () Int)
(declare-fun g_s307_307 () Int)
(declare-fun g_s308_309 () Int)
(declare-fun g_s309_308 () Int)
(declare-fun g_s31_31 () Int)
(declare-fun g_s310_311 () Int)
(declare-fun g_s311_310 () Int)
(declare-fun g_s312_313 () Int)
(declare-fun g_s313_312 () Int)
(declare-fun g_s314_315 () Int)
(declare-fun g_s315_314 () Int)
(declare-fun g_s316_317 () Int)
(declare-fun g_s317_316 () Int)
(declare-fun g_s318_319 () Int)
(declare-fun g_s319_318 () Int)
(declare-fun g_s32_32 () Int)
(declare-fun g_s320_321 () Int)
(declare-fun g_s321_320 () Int)
(declare-fun g_s322_322 () Int)
(declare-fun g_s323_323 () Int)
(declare-fun g_s324_324 () Int)
(declare-fun g_s325_325 () Int)
(declare-fun g_s326_326 () Int)
(declare-fun g_s327_327 () Int)
(declare-fun g_s328_328 () Int)
(declare-fun g_s329_329 () Int)
(declare-fun g_s33_33 () Int)
(declare-fun g_s330_330 () Int)
(declare-fun g_s331_331 () Int)
(declare-fun g_s332_332 () Int)
(declare-fun g_s333_333 () Int)
(declare-fun g_s334_334 () Int)
(declare-fun g_s335_335 () Int)
(declare-fun g_s336_336 () Int)
(declare-fun g_s337_337 () Int)
(declare-fun g_s338_338 () Int)
(declare-fun g_s339_339 () Int)
(declare-fun g_s34_34 () Int)
(declare-fun g_s340_340 () Int)
(declare-fun g_s341_341 () Int)
(declare-fun g_s342_342 () Int)
(declare-fun g_s343_343 () Int)
(declare-fun g_s344_344 () Int)
(declare-fun g_s345_345 () Int)
(declare-fun g_s346_346 () Int)
(declare-fun g_s347_347 () Int)
(declare-fun g_s348_348 () Int)
(declare-fun g_s349_349 () Int)
(declare-fun g_s35_35 () Int)
(declare-fun g_s350_350 () Int)
(declare-fun g_s351_351 () Int)
(declare-fun g_s352_352 () Int)
(declare-fun g_s353_353 () Int)
(declare-fun g_s354_354 () Int)
(declare-fun g_s355_355 () Int)
(declare-fun g_s356_356 () Int)
(declare-fun g_s357_357 () Int)
(declare-fun g_s358_358 () Int)
(declare-fun g_s359_359 () Int)
(declare-fun g_s36_36 () Int)
(declare-fun g_s360_360 () Int)
(declare-fun g_s361_361 () Int)
(declare-fun g_s362_362 () Int)
(declare-fun g_s363_363 () Int)
(declare-fun g_s364_364 () Int)
(declare-fun g_s365_365 () Int)
(declare-fun g_s366_366 () Int)
(declare-fun g_s367_367 () Int)
(declare-fun g_s368_368 () Int)
(declare-fun g_s369_369 () Int)
(declare-fun g_s37_37 () Int)
(declare-fun g_s370_370 () Int)
(declare-fun g_s371_371 () Int)
(declare-fun g_s372_372 () Int)
(declare-fun g_s373_373 () Int)
(declare-fun g_s374_374 () Int)
(declare-fun g_s375_375 () Int)
(declare-fun g_s376_376 () Int)
(declare-fun g_s377_377 () Int)
(declare-fun g_s379_379 () Int)
(declare-fun g_s38_38 () Int)
(declare-fun g_s380_380 () Int)
(declare-fun g_s381_382 () Int)
(declare-fun g_s382_383 () Int)
(declare-fun g_s385_385 () Int)
(declare-fun g_s386_386 () Int)
(declare-fun g_s387_387 () Int)
(declare-fun g_s388_389 () Int)
(declare-fun g_s389_390 () Int)
(declare-fun g_s39_39 () Int)
(declare-fun g_s390_391 () Int)
(declare-fun g_s393_393 () Int)
(declare-fun g_s394_394 () Int)
(declare-fun g_s395_395 () Int)
(declare-fun g_s396_396 () Int)
(declare-fun g_s397_398 () Int)
(declare-fun g_s398_399 () Int)
(declare-fun g_s399_400 () Int)
(declare-fun g_s4_4 () Int)
(declare-fun g_s40_40 () Int)
(declare-fun g_s400_401 () Int)
(declare-fun g_s401_403 () Int)
(declare-fun g_s402_404 () Int)
(declare-fun g_s403_405 () Int)
(declare-fun g_s404_407 () Int)
(declare-fun g_s405_408 () Int)
(declare-fun g_s406_409 () Int)
(declare-fun g_s407_411 () Int)
(declare-fun g_s408_412 () Int)
(declare-fun g_s409_413 () Int)
(declare-fun g_s41_41 () Int)
(declare-fun g_s410_414 () Int)
(declare-fun g_s411_415 () Int)
(declare-fun g_s414_417 () Int)
(declare-fun g_s415_418 () Int)
(declare-fun g_s417_420 () Int)
(declare-fun g_s418_422 () Int)
(declare-fun g_s42_42 () Int)
(declare-fun g_s420_423 () Int)
(declare-fun g_s421_424 () Int)
(declare-fun g_s422_425 () Int)
(declare-fun g_s423_426 () Int)
(declare-fun g_s424_427 () Int)
(declare-fun g_s425_428 () Int)
(declare-fun g_s426_429 () Int)
(declare-fun g_s427_430 () Int)
(declare-fun g_s428_431 () Int)
(declare-fun g_s429_432 () Int)
(declare-fun g_s43_43 () Int)
(declare-fun g_s430_433 () Int)
(declare-fun g_s431_434 () Int)
(declare-fun g_s432_435 () Int)
(declare-fun g_s433_436 () Int)
(declare-fun g_s434_437 () Int)
(declare-fun g_s435_439 () Int)
(declare-fun g_s436_438 () Int)
(declare-fun g_s437_440 () Int)
(declare-fun g_s438_442 () Int)
(declare-fun g_s439_441 () Int)
(declare-fun g_s44_44 () Int)
(declare-fun g_s440_443 () Int)
(declare-fun g_s441_444 () Int)
(declare-fun g_s443_445 () Int)
(declare-fun g_s443$1_446 () Int)
(declare-fun g_s45_45 () Int)
(declare-fun g_s46_46 () Int)
(declare-fun g_s47_47 () Int)
(declare-fun g_s48_48 () Int)
(declare-fun g_s49_49 () Int)
(declare-fun g_s5_5 () Int)
(declare-fun g_s50_50 () Int)
(declare-fun g_s51_51 () Int)
(declare-fun g_s52_52 () Int)
(declare-fun g_s53_53 () Int)
(declare-fun g_s54_54 () Int)
(declare-fun g_s55_55 () Int)
(declare-fun g_s56_56 () Int)
(declare-fun g_s57_57 () Int)
(declare-fun g_s58_58 () Int)
(declare-fun g_s59_59 () Int)
(declare-fun g_s6_6 () Int)
(declare-fun g_s60_60 () Int)
(declare-fun g_s61_61 () Int)
(declare-fun g_s62_62 () Int)
(declare-fun g_s63_63 () Int)
(declare-fun g_s64_64 () Int)
(declare-fun g_s65_65 () Int)
(declare-fun g_s66_66 () Int)
(declare-fun g_s67_67 () Int)
(declare-fun g_s68_68 () Int)
(declare-fun g_s69_69 () Int)
(declare-fun g_s7_7 () Int)
(declare-fun g_s70_70 () Int)
(declare-fun g_s71_71 () Int)
(declare-fun g_s72_72 () Int)
(declare-fun g_s73_73 () Int)
(declare-fun g_s74_74 () Int)
(declare-fun g_s75_75 () Int)
(declare-fun g_s76_76 () Int)
(declare-fun g_s77_77 () Int)
(declare-fun g_s78_78 () Int)
(declare-fun g_s79_79 () Int)
(declare-fun g_s8_8 () Int)
(declare-fun g_s80_80 () Int)
(declare-fun g_s81_81 () Int)
(declare-fun g_s82_82 () Int)
(declare-fun g_s83_83 () Int)
(declare-fun g_s84_84 () Int)
(declare-fun g_s85_85 () Int)
(declare-fun g_s86_86 () Int)
(declare-fun g_s87_87 () Int)
(declare-fun g_s88_88 () Int)
(declare-fun g_s89_89 () Int)
(declare-fun g_s9_9 () Int)
(declare-fun g_s90_90 () Int)
(declare-fun g_s91_91 () Int)
(declare-fun g_s92_92 () Int)
(declare-fun g_s93_93 () Int)
(declare-fun g_s94_94 () Int)
(declare-fun g_s95_95 () Int)
(declare-fun g_s96_96 () Int)
(declare-fun g_s97_97 () Int)
(declare-fun g_s98_98 () Int)
(declare-fun g_s99_99 () Int)
(declare-fun e410 () Int)
(declare-fun e378 () Int)
(declare-fun e381 () Int)
(declare-fun e419 () Int)
(declare-fun e421 () Int)
(declare-fun e388 () Int)
(declare-fun e384 () Int)
(declare-fun e406 () Int)
(declare-fun e402 () Int)
(declare-fun e392 () Int)
(declare-fun e397 () Int)
(declare-fun e416 () Int)
; Defines
(define-fun |def_B definitions| () Bool (and (= NAT (interval 0 MaxInt)) (= INT (interval MinInt MaxInt))))
(define-fun |def_ctx| () Bool (and (= g_s0_0 (SET (mapplet g_s3_3 (mapplet g_s2_2 g_s1_1)))) (= g_s4_4 (SET (mapplet g_s7_7 (mapplet g_s6_6 g_s5_5)))) (= g_s8_8 (SET (mapplet g_s11_11 (mapplet g_s10_10 g_s9_9)))) (= g_s12_12 (SET (mapplet g_s17_17 (mapplet g_s16_16 (mapplet g_s15_15 (mapplet g_s14_14 g_s13_13)))))) (= g_s18_18 (SET (mapplet g_s20_20 g_s19_19))) (= g_s21_21 (SET (mapplet g_s25_25 (mapplet g_s24_24 (mapplet g_s23_23 g_s22_22))))) (= g_s26_26 (SET (mapplet g_s31_31 (mapplet g_s30_30 (mapplet g_s29_29 (mapplet g_s28_28 g_s27_27)))))) (= g_s32_32 (SET (mapplet g_s35_35 (mapplet g_s34_34 g_s33_33)))) (= g_s36_36 (SET (mapplet g_s38_38 g_s37_37))) (= g_s39_39 (SET (mapplet g_s42_42 (mapplet g_s41_41 g_s40_40)))) (= g_s43_43 (SET (mapplet g_s46_46 (mapplet g_s45_45 g_s44_44)))) (= g_s47_47 (SET (mapplet g_s50_50 (mapplet g_s49_49 g_s48_48)))) (= g_s51_51 (SET (mapplet g_s55_55 (mapplet g_s54_54 (mapplet g_s53_53 g_s52_52))))) (= g_s56_56 (SET (mapplet g_s71_71 (mapplet g_s70_70 (mapplet g_s69_69 (mapplet g_s68_68 (mapplet g_s67_67 (mapplet g_s66_66 (mapplet g_s65_65 (mapplet g_s64_64 (mapplet g_s63_63 (mapplet g_s62_62 (mapplet g_s61_61 (mapplet g_s60_60 (mapplet g_s59_59 (mapplet g_s58_58 g_s57_57)))))))))))))))) (= g_s72_72 (SET (mapplet g_s104_104 (mapplet g_s103_103 (mapplet g_s102_102 (mapplet g_s101_101 (mapplet g_s100_100 (mapplet g_s99_99 (mapplet g_s98_98 (mapplet g_s97_97 (mapplet g_s96_96 (mapplet g_s95_95 (mapplet g_s94_94 (mapplet g_s93_93 (mapplet g_s92_92 (mapplet g_s91_91 (mapplet g_s90_90 (mapplet g_s89_89 (mapplet g_s88_88 (mapplet g_s87_87 (mapplet g_s86_86 (mapplet g_s85_85 (mapplet g_s84_84 (mapplet g_s83_83 (mapplet g_s82_82 (mapplet g_s81_81 (mapplet g_s80_80 (mapplet g_s79_79 (mapplet g_s78_78 (mapplet g_s77_77 (mapplet g_s76_76 (mapplet g_s75_75 (mapplet g_s74_74 g_s73_73))))))))))))))))))))))))))))))))) (= g_s105_105 (SET (mapplet g_s109_109 (mapplet g_s108_108 (mapplet g_s107_107 g_s106_106))))) (= g_s110_110 (SET (mapplet g_s117_117 (mapplet g_s116_116 (mapplet g_s115_115 (mapplet g_s114_114 (mapplet g_s113_113 (mapplet g_s112_112 g_s111_111)))))))) (= g_s118_118 (SET (mapplet g_s122_122 (mapplet g_s121_121 (mapplet g_s120_120 g_s119_119))))) (= g_s123_123 (SET (mapplet g_s128_128 (mapplet g_s127_127 (mapplet g_s126_126 (mapplet g_s125_125 g_s124_124)))))) (subset g_s129_129 g_s0_0) (= g_s129_129 (SET (mapplet g_s3_3 g_s2_2))) (= g_s130_130 INT) (= g_s131_131 INT) (= g_s132_132 INT) (= g_s133_133 INT) (= g_s134_134 INT) (= g_s135_135 INT) (= g_s136_136 NAT) (= g_s137_137 INT) (= g_s138_138 INT) (= g_s139_139 INT) (= g_s140_140 NAT) (= g_s141_141 INT) (= g_s142_142 NAT) (= g_s143_143 NAT) (= g_s144_144 NAT) (subset g_s145_145 g_s129_129) (= g_s145_145 g_s129_129) (subset g_s146_146 g_s8_8) (= g_s146_146 g_s8_8) (subset g_s147_147 g_s56_56) (= g_s147_147 (SET (mapplet g_s71_71 (mapplet g_s67_67 (mapplet g_s66_66 (mapplet g_s65_65 (mapplet g_s64_64 (mapplet g_s63_63 (mapplet g_s62_62 (mapplet g_s61_61 (mapplet g_s60_60 (mapplet g_s59_59 (mapplet g_s58_58 g_s57_57))))))))))))) (= g_s148_148 g_s72_72) (= g_s149_149 g_s147_147) (= g_s150_150 g_s148_148) (= g_s151_151 g_s110_110) (= g_s152_152 g_s56_56) (= g_s153_153 g_s72_72) (= g_s154_154 g_s152_152) (= g_s155_155 g_s153_153) (mem g_s156_156 NAT) (= g_s156_156 3) (mem g_s157_157 NAT) (= g_s157_157 64) (subset g_s158_158 INT) (not (= g_s158_158 empty)) (= g_s158_158 (interval 0 g_s156_156)) (subset g_s159_159 INT) (not (= g_s159_159 empty)) (= g_s159_159 (interval 0 g_s157_157)) (mem g_s160_160 NAT) (= g_s160_160 4) (subset g_s161_161 INT) (not (= g_s161_161 empty)) (= g_s161_161 (interval 1 g_s160_160)) (subset g_s162_162 g_s158_158) (= g_s162_162 g_s158_158) (subset g_s163_163 g_s159_159) (= g_s163_163 g_s159_159) (subset g_s164_164 NAT) (mem g_s165_165 g_s164_164) (subset g_s166_166 NAT) (= g_s166_166 g_s164_164) (subset g_s167_167 NAT) (subset g_s168_168 NAT) (= g_s169_169 BOOL) (= g_s170_170 BOOL) (= g_s171_171 INT) (mem g_s172_173 g_s173_172) (mem g_s174_174 g_s173_172) (mem g_s175_175 g_s173_172) (mem g_s176_176 g_s173_172) (mem g_s177_177 g_s173_172) (mem g_s178_178 g_s173_172) (mem g_s179_179 g_s173_172) (mem g_s180_180 g_s173_172) (mem g_s181_181 g_s173_172) (mem g_s182_182 g_s173_172) (mem g_s183_183 g_s173_172) (mem g_s184_184 g_s173_172) (mem g_s185_185 g_s173_172) (mem g_s186_186 g_s173_172) (mem g_s187_187 g_s173_172) (mem g_s188_188 g_s173_172) (mem g_s189_189 g_s173_172) (mem g_s190_190 g_s173_172) (mem g_s191_191 g_s173_172) (mem g_s192_192 g_s173_172) (mem g_s193_193 g_s173_172) (mem g_s194_194 g_s173_172) (mem g_s195_195 g_s173_172) (mem g_s196_196 g_s173_172) (mem g_s197_197 g_s173_172) (mem g_s198_198 g_s173_172) (mem g_s199_199 g_s173_172) (mem g_s200_200 g_s173_172) (mem g_s201_201 g_s173_172) (mem g_s202_202 g_s173_172) (mem g_s203_203 g_s173_172) (mem g_s204_204 g_s173_172) (mem g_s205_205 g_s173_172) (mem g_s206_206 g_s173_172) (mem g_s207_207 g_s173_172) (mem g_s208_208 g_s173_172) (mem g_s209_209 g_s173_172) (mem g_s210_210 g_s173_172) (= g_s211_211 g_s173_172) (mem g_s212_212 g_s173_172) (mem g_s213_213 g_s173_172) (mem g_s214_214 g_s173_172) (mem g_s215_215 g_s173_172) (mem g_s216_216 g_s173_172) (mem g_s217_217 g_s173_172) (mem g_s218_218 g_s173_172) (= g_s215_215 g_s219_219) (= g_s216_216 g_s220_220) (= g_s217_217 g_s221_221) (= g_s218_218 g_s222_222) (= g_s172_173 g_s219_219) (= g_s174_174 g_s221_221) (= g_s175_175 g_s220_220) (= g_s176_176 g_s219_219) (= g_s177_177 g_s221_221) (= g_s178_178 g_s220_220) (= g_s179_179 g_s219_219) (= g_s180_180 g_s221_221) (= g_s181_181 g_s220_220) (= g_s182_182 g_s219_219) (= g_s183_183 g_s221_221) (= g_s184_184 g_s220_220) (= g_s185_185 g_s222_222) (= g_s186_186 g_s223_223) (= g_s187_187 g_s219_219) (= g_s188_188 g_s221_221) (= g_s189_189 g_s220_220) (= g_s190_190 g_s222_222) (= g_s191_191 g_s219_219) (= g_s192_192 g_s221_221) (= g_s193_193 g_s220_220) (= g_s194_194 g_s222_222) (= g_s195_195 g_s219_219) (= g_s196_196 g_s221_221) (= g_s197_197 g_s220_220) (= g_s198_198 g_s222_222) (= g_s199_199 g_s223_223) (= g_s200_200 g_s219_219) (= g_s201_201 g_s221_221) (= g_s202_202 g_s220_220) (= g_s203_203 g_s219_219) (= g_s204_204 g_s221_221) (= g_s205_205 g_s219_219) (= g_s206_206 g_s221_221) (= g_s207_207 g_s220_220) (= g_s208_208 g_s219_219) (= g_s209_209 g_s221_221) (= g_s210_210 g_s220_220) (= g_s212_212 g_s219_219) (= g_s213_213 g_s221_221) (= g_s214_214 g_s220_220) (mem g_s224_224 g_s173_172) (mem g_s225_225 g_s173_172) (mem g_s226_226 g_s173_172) (mem g_s227_227 g_s173_172) (mem g_s228_228 g_s173_172) (mem g_s229_229 g_s173_172) (mem g_s230_230 g_s173_172) (mem g_s231_231 g_s173_172) (mem g_s232_232 g_s173_172) (mem g_s233_233 g_s173_172) (mem g_s234_234 g_s173_172) (mem g_s235_235 g_s173_172) (mem g_s236_236 g_s173_172) (mem g_s237_237 g_s173_172) (mem g_s238_238 g_s173_172) (mem g_s239_239 g_s173_172) (mem g_s240_240 g_s173_172) (mem g_s241_241 g_s173_172) (mem g_s242_242 g_s173_172) (mem g_s243_243 g_s173_172) (mem g_s244_244 g_s173_172) (mem g_s245_245 g_s173_172) (mem g_s246_246 g_s173_172) (mem g_s247_247 g_s173_172) (mem g_s248_248 g_s173_172) (= g_s224_224 g_s219_219) (= g_s225_225 g_s221_221) (= g_s226_226 g_s220_220) (= g_s227_227 g_s222_222) (= g_s228_228 g_s223_223) (= g_s229_229 g_s249_249) (= g_s230_230 g_s250_250) (= g_s231_231 g_s251_251) (= g_s232_232 g_s252_252) (= g_s233_233 g_s253_253) (= g_s234_234 g_s254_254) (= g_s235_235 g_s255_255) (= g_s236_236 g_s256_256) (= g_s237_237 g_s257_257) (= g_s238_238 g_s258_258) (= g_s239_239 g_s259_259) (= g_s240_240 g_s260_260) (= g_s241_241 g_s261_261) (= g_s242_242 g_s262_262) (= g_s243_243 g_s263_263) (= g_s244_244 g_s264_264) (= g_s245_245 g_s265_265) (= g_s246_246 g_s266_266) (= g_s247_247 g_s267_267) (= g_s248_248 g_s268_268) (mem g_s269_269 g_s173_172) (mem g_s270_270 g_s173_172) (mem g_s271_271 g_s173_172) (mem g_s272_272 g_s173_172) (mem g_s273_273 g_s173_172) (mem g_s274_274 g_s173_172) (mem g_s275_275 g_s173_172) (mem g_s276_276 g_s173_172) (mem g_s277_277 g_s173_172) (mem g_s278_278 g_s173_172) (mem g_s279_279 g_s173_172) (mem g_s280_280 g_s173_172) (mem g_s281_281 g_s173_172) (mem g_s282_282 g_s173_172) (= g_s269_269 g_s219_219) (= g_s270_270 g_s221_221) (= g_s271_271 g_s220_220) (= g_s272_272 g_s222_222) (= g_s273_273 g_s223_223) (= g_s274_274 g_s249_249) (= g_s275_275 g_s250_250) (= g_s276_276 g_s251_251) (= g_s277_277 g_s252_252) (= g_s278_278 g_s253_253) (= g_s279_279 g_s254_254) (= g_s280_280 g_s255_255) (= g_s281_281 g_s256_256) (= g_s283_283 g_s219_219) (= g_s284_284 g_s221_221) (= g_s285_285 g_s220_220) (= g_s286_286 g_s222_222) (= g_s287_287 g_s223_223) (= g_s288_288 g_s249_249) (= g_s289_289 g_s250_250) (= g_s290_290 g_s251_251) (= g_s291_291 g_s252_252) (= g_s292_292 g_s253_253) (= g_s293_293 g_s254_254) (= g_s294_294 g_s255_255) (= g_s295_295 g_s256_256) (= g_s296_296 g_s257_257) (= g_s297_297 g_s258_258) (= g_s298_298 g_s259_259) (= g_s299_299 g_s260_260) (= g_s300_300 g_s261_261) (= g_s301_301 g_s262_262) (= g_s302_302 g_s263_263) (= g_s303_303 g_s264_264) (= g_s304_304 g_s265_265) (= g_s305_305 g_s266_266) (= g_s306_306 g_s267_267) (= g_s307_307 g_s268_268) (= g_s308_309 g_s309_308) (= g_s310_311 g_s311_310) (= g_s312_313 g_s313_312) (= g_s314_315 g_s315_314) (= g_s316_317 g_s317_316) (= g_s318_319 g_s319_318) (= g_s320_321 g_s321_320) (= g_s322_322 g_s219_219) (= g_s323_323 g_s221_221) (= g_s324_324 g_s220_220) (= g_s325_325 g_s222_222) (= g_s326_326 g_s223_223) (= g_s327_327 g_s249_249) (= g_s328_328 g_s250_250) (mem g_s329_329 g_s173_172) (mem g_s330_330 g_s173_172) (mem g_s331_331 g_s173_172) (mem g_s332_332 g_s173_172) (mem g_s333_333 g_s173_172) (mem g_s334_334 g_s173_172) (mem g_s335_335 g_s173_172) (mem g_s336_336 g_s173_172) (mem g_s337_337 g_s173_172) (mem g_s338_338 g_s173_172) (mem g_s339_339 g_s173_172) (mem g_s340_340 g_s173_172) (mem g_s341_341 g_s173_172) (mem g_s342_342 g_s173_172) (mem g_s343_343 g_s173_172) (mem g_s344_344 g_s173_172) (mem g_s345_345 g_s173_172) (mem g_s346_346 g_s173_172) (mem g_s347_347 g_s173_172) (mem g_s348_348 g_s173_172) (mem g_s349_349 g_s173_172) (mem g_s350_350 g_s173_172) (mem g_s351_351 g_s173_172) (mem g_s352_352 g_s173_172) (mem g_s353_353 g_s173_172) (mem g_s354_354 g_s173_172) (mem g_s355_355 g_s173_172) (mem g_s356_356 g_s173_172) (mem g_s357_357 g_s173_172) (mem g_s358_358 g_s173_172) (mem g_s359_359 g_s173_172) (mem g_s360_360 g_s173_172) (= g_s329_329 g_s219_219) (= g_s330_330 g_s221_221) (= g_s331_331 g_s220_220) (= g_s332_332 g_s222_222) (= g_s333_333 g_s223_223) (= g_s334_334 g_s249_249) (= g_s335_335 g_s250_250) (= g_s336_336 g_s251_251) (= g_s337_337 g_s252_252) (= g_s338_338 g_s253_253) (= g_s339_339 g_s254_254) (= g_s340_340 g_s255_255) (= g_s341_341 g_s256_256) (= g_s342_342 g_s257_257) (= g_s343_343 g_s258_258) (= g_s344_344 g_s259_259) (= g_s345_345 g_s260_260) (= g_s346_346 g_s261_261) (= g_s347_347 g_s262_262) (= g_s348_348 g_s263_263) (= g_s349_349 g_s264_264) (= g_s350_350 g_s265_265) (= g_s351_351 g_s266_266) (= g_s352_352 g_s267_267) (= g_s353_353 g_s268_268) (= g_s354_354 g_s309_308) (= g_s355_355 g_s311_310) (= g_s356_356 g_s313_312) (= g_s357_357 g_s315_314) (= g_s358_358 g_s317_316) (= g_s359_359 g_s319_318) (= g_s360_360 g_s321_320) (mem g_s361_361 INT) (mem g_s362_362 INT) (mem g_s363_363 INT) (mem g_s364_364 INT) (mem g_s365_365 INT) (mem g_s366_366 g_s134_134) (= g_s366_366 (- 131072000)) (= g_s367_367 BOOL) (= g_s368_368 BOOL) (= g_s369_369 INT) (= g_s370_370 INT) (= g_s173_172 INT) (= g_s371_371 g_s173_172) (= g_s372_372 g_s173_172) (= g_s373_373 g_s369_369) (= g_s374_374 g_s367_367) (= g_s375_375 INT) (= g_s376_376 INT) (= g_s219_219 0) (= g_s221_221 1) (= g_s220_220 2) (= g_s222_222 3) (= g_s223_223 4) (= g_s249_249 5) (= g_s250_250 6) (= g_s251_251 7) (= g_s252_252 8) (= g_s253_253 9) (= g_s254_254 10) (= g_s255_255 11) (= g_s256_256 12) (= g_s257_257 13) (= g_s258_258 14) (= g_s259_259 15) (= g_s260_260 16) (= g_s261_261 17) (= g_s262_262 18) (= g_s263_263 19) (= g_s264_264 20) (= g_s265_265 21) (= g_s266_266 22) (= g_s267_267 23) (= g_s268_268 24) (= g_s309_308 25) (= g_s311_310 26) (= g_s313_312 27) (= g_s315_314 28) (= g_s317_316 29) (= g_s319_318 30) (= g_s321_320 31) (mem g_s377_377 (|-->| BOOL BOOL)) (= g_s377_377 e378) (mem g_s379_379 (|-->| BOOL BOOL)) (= g_s379_379 g_s377_377) (mem g_s380_380 (|-->| BOOL BOOL)) (= g_s380_380 e381) (mem g_s381_382 (|-->| BOOL BOOL)) (= g_s381_382 g_s380_380) (mem g_s382_383 (|-->| (set_prod BOOL BOOL) BOOL)) (= g_s382_383 e384) (mem g_s385_385 (|-->| (set_prod BOOL BOOL) BOOL)) (= g_s385_385 g_s382_383) (mem g_s386_386 (|-->| (set_prod BOOL BOOL) BOOL)) (= g_s386_386 g_s382_383) (mem g_s387_387 (|-->| (set_prod BOOL BOOL) BOOL)) (= g_s387_387 e388) (mem g_s388_389 (|-->| (set_prod BOOL BOOL) BOOL)) (= g_s388_389 g_s387_387) (mem g_s389_390 (|-->| (set_prod BOOL BOOL) BOOL)) (= g_s389_390 g_s387_387) (mem g_s390_391 (|-->| (set_prod g_s369_369 g_s369_369) BOOL)) (= g_s390_391 e392) (mem g_s393_393 (|-->| (set_prod g_s369_369 g_s369_369) BOOL)) (= g_s393_393 g_s390_391) (mem g_s394_394 (|-->| (set_prod g_s369_369 g_s369_369) BOOL)) (= g_s394_394 g_s390_391) (mem g_s395_395 (|-->| (set_prod g_s369_369 g_s369_369) BOOL)) (= g_s395_395 g_s390_391) (mem g_s396_396 (|-->| (set_prod g_s369_369 g_s369_369) BOOL)) (= g_s396_396 e397) (mem g_s397_398 (|-->| (set_prod g_s369_369 g_s369_369) BOOL)) (= g_s397_398 g_s396_396) (mem g_s398_399 (|-->| (set_prod g_s369_369 g_s369_369) BOOL)) (= g_s398_399 g_s396_396) (mem g_s399_400 (|-->| (set_prod g_s369_369 g_s369_369) BOOL)) (= g_s399_400 g_s396_396) (mem g_s400_401 (|-->| (set_prod g_s369_369 g_s369_369) BOOL)) (= g_s400_401 e402) (mem g_s401_403 (|-->| (set_prod g_s369_369 g_s369_369) BOOL)) (= g_s401_403 g_s400_401) (mem g_s402_404 (|-->| (set_prod g_s369_369 g_s369_369) BOOL)) (= g_s402_404 g_s400_401) (mem g_s403_405 (|-->| (set_prod g_s369_369 g_s369_369) BOOL)) (= g_s403_405 e406) (mem g_s404_407 (|-->| (set_prod g_s369_369 g_s369_369) BOOL)) (= g_s404_407 g_s403_405) (mem g_s405_408 (|-->| (set_prod g_s369_369 g_s369_369) BOOL)) (= g_s405_408 g_s403_405) (mem g_s406_409 (|-->| BOOL BOOL)) (= g_s406_409 e410) (mem g_s407_411 (|-->| BOOL BOOL)) (= g_s407_411 e410) (mem g_s408_412 (|-->| BOOL BOOL)) (= g_s408_412 e410) (mem g_s409_413 (|-->| BOOL BOOL)) (= g_s409_413 e410) (mem g_s410_414 (|-->| BOOL BOOL)) (= g_s410_414 e410) (mem g_s411_415 (|-->| (set_prod g_s371_371 g_s173_172) BOOL)) (= g_s411_415 e416) (mem g_s414_417 (|-->| (set_prod g_s173_172 g_s173_172) BOOL)) (= g_s414_417 g_s414_417) (mem g_s415_418 (|>->>| g_s173_172 g_s173_172)) (= g_s415_418 e419) (mem g_s417_420 (|>->>| g_s371_371 g_s371_371)) (= g_s417_420 g_s415_418) (= g_s418_422 e421) (= g_s420_423 e410)))
(define-fun |def_seext| () Bool (and (mem g_s421_424 g_s134_134) (mem g_s422_425 g_s134_134) (mem g_s423_426 g_s134_134) (mem g_s424_427 g_s134_134) (mem g_s425_428 g_s134_134) (mem g_s426_429 g_s134_134) (mem g_s427_430 g_s169_169) (mem g_s428_431 g_s169_169) (mem g_s429_432 g_s169_169) (mem g_s430_433 g_s169_169) (mem g_s431_434 g_s169_169) (mem g_s432_435 g_s169_169) (mem g_s433_436 g_s130_130) (>= g_s433_436 0) (mem g_s434_437 g_s130_130) (>= g_s434_437 0) (mem g_s435_439 g_s436_438) (mem g_s437_440 g_s436_438) (mem g_s438_442 g_s439_441) (mem g_s440_443 g_s169_169) (mem g_s441_444 g_s169_169)))
(define-fun |def_mchcst| () Bool true)
(define-fun |def_aprp| () Bool true)
(define-fun |def_abs| () Bool true)
(define-fun |def_inv| () Bool true)
(define-fun |def_ass| () Bool true)
(define-fun |def_sets| () Bool true)
(define-fun |def_imlprp| () Bool true)
(define-fun |def_imprp| () Bool true)
(define-fun |def_imext| () Bool true)
; PO group 0 
(assert |def_B definitions|)
(assert |def_ctx|)
(assert |def_mchcst|)
(assert |def_aprp|)
(assert |def_imlprp|)
(assert |def_imprp|)
(assert |def_imext|)
(assert |def_seext|)
(assert |def_abs|)
(assert |def_inv|)
(assert |def_ass|)
(assert (= g_s443$1_446 g_s443_445))
(define-fun lh_1 () Bool (mem g_s443_445 g_s131_131))
; PO 1 in group 0
(assert (not (=> lh_1 (mem g_s443$1_446 g_s130_130))))
(check-sat)
(exit)